p cnf 222 1010
c p weight 92 0 0
c p weight -92 1 0
c p weight 93 1 0
c p weight -93 1 0
c p weight 219 -1 0
c p weight -219 1 0
c p weight 222 0.5 0
222 0
-87 0
-85 0
-83 0
-81 0
-79 0
-77 0
-75 0
-73 0
-71 0
-69 0
-67 0
-65 0
-63 0
-61 0
-59 0
-57 0
-55 0
-53 0
-51 0
-49 0
-47 0
-45 0
-43 0
-41 0
-39 0
-37 0
-35 0
-33 0
-31 0
-29 0
-27 0
-25 0
-23 0
-21 0
-19 0
-17 0
-15 0
-13 0
-11 0
-9 0
-7 0
-5 0
-3 0
-1 0
88 -87 85 0
88 -87 86 0
-88 87 85 0
-88 87 86 0
88 87 -85 -86 0
-88 -87 -85 -86 0
89 85 -86 0
89 -85 86 0
-89 85 86 0
-89 -85 -86 0
90 91 -88 0
90 -88 89 0
-90 91 88 0
-90 88 89 0
90 -88 -85 0
-90 88 -85 0
90 -91 88 85 -89 0
-90 -91 -88 85 -89 0
91 -85 89 0
-91 85 89 0
-92 89 0
91 -92 -85 0
-91 -92 85 0
91 92 85 -89 0
-91 92 -85 -89 0
-93 89 0
91 -93 85 0
-91 -93 -85 0
91 93 -85 -89 0
-91 93 85 -89 0
94 -90 91 0
94 -90 89 0
-94 90 91 0
-94 90 89 0
94 90 -91 -89 0
-94 -90 -91 -89 0
95 91 -89 0
95 -91 89 0
-95 91 89 0
-95 -91 -89 0
96 -94 91 0
96 -94 84 0
-96 94 91 0
-96 94 84 0
96 -94 83 -95 0
96 -94 -83 95 0
-96 94 83 -95 0
-96 94 -83 95 0
96 94 -91 83 95 -84 0
96 94 -91 -83 -95 -84 0
-96 -94 -91 83 95 -84 0
-96 -94 -91 -83 -95 -84 0
98 91 -83 0
98 -91 83 0
-98 91 83 0
-98 -91 -83 0
97 95 -84 0
97 -95 84 0
-97 95 84 0
-97 -95 -84 0
99 -96 98 0
99 -96 82 0
-99 96 98 0
-99 96 82 0
99 -96 81 -84 0
99 -96 -81 84 0
-99 96 81 -84 0
-99 96 -81 84 0
99 96 -98 81 84 -82 0
99 96 -98 -81 -84 -82 0
-99 -96 -98 81 84 -82 0
-99 -96 -98 -81 -84 -82 0
101 98 -81 0
101 -98 81 0
-101 98 81 0
-101 -98 -81 0
100 84 -82 0
100 -84 82 0
-100 84 82 0
-100 -84 -82 0
102 -99 101 0
102 -99 80 0
-102 99 101 0
-102 99 80 0
102 -99 79 -82 0
102 -99 -79 82 0
-102 99 79 -82 0
-102 99 -79 82 0
102 99 -101 79 82 -80 0
102 99 -101 -79 -82 -80 0
-102 -99 -101 79 82 -80 0
-102 -99 -101 -79 -82 -80 0
104 101 -79 0
104 -101 79 0
-104 101 79 0
-104 -101 -79 0
103 82 -80 0
103 -82 80 0
-103 82 80 0
-103 -82 -80 0
105 -102 104 0
105 -102 78 0
-105 102 104 0
-105 102 78 0
105 -102 77 -80 0
105 -102 -77 80 0
-105 102 77 -80 0
-105 102 -77 80 0
105 102 -104 77 80 -78 0
105 102 -104 -77 -80 -78 0
-105 -102 -104 77 80 -78 0
-105 -102 -104 -77 -80 -78 0
107 104 -77 0
107 -104 77 0
-107 104 77 0
-107 -104 -77 0
106 80 -78 0
106 -80 78 0
-106 80 78 0
-106 -80 -78 0
108 -105 107 0
108 -105 76 0
-108 105 107 0
-108 105 76 0
108 -105 75 -78 0
108 -105 -75 78 0
-108 105 75 -78 0
-108 105 -75 78 0
108 105 -107 75 78 -76 0
108 105 -107 -75 -78 -76 0
-108 -105 -107 75 78 -76 0
-108 -105 -107 -75 -78 -76 0
110 107 -75 0
110 -107 75 0
-110 107 75 0
-110 -107 -75 0
109 78 -76 0
109 -78 76 0
-109 78 76 0
-109 -78 -76 0
111 -108 110 0
111 -108 74 0
-111 108 110 0
-111 108 74 0
111 -108 73 -76 0
111 -108 -73 76 0
-111 108 73 -76 0
-111 108 -73 76 0
111 108 -110 73 76 -74 0
111 108 -110 -73 -76 -74 0
-111 -108 -110 73 76 -74 0
-111 -108 -110 -73 -76 -74 0
113 110 -73 0
113 -110 73 0
-113 110 73 0
-113 -110 -73 0
112 76 -74 0
112 -76 74 0
-112 76 74 0
-112 -76 -74 0
114 -111 113 0
114 -111 72 0
-114 111 113 0
-114 111 72 0
114 -111 71 -74 0
114 -111 -71 74 0
-114 111 71 -74 0
-114 111 -71 74 0
114 111 -113 71 74 -72 0
114 111 -113 -71 -74 -72 0
-114 -111 -113 71 74 -72 0
-114 -111 -113 -71 -74 -72 0
116 113 -71 0
116 -113 71 0
-116 113 71 0
-116 -113 -71 0
115 74 -72 0
115 -74 72 0
-115 74 72 0
-115 -74 -72 0
117 -114 116 0
117 -114 70 0
-117 114 116 0
-117 114 70 0
117 -114 69 -72 0
117 -114 -69 72 0
-117 114 69 -72 0
-117 114 -69 72 0
117 114 -116 69 72 -70 0
117 114 -116 -69 -72 -70 0
-117 -114 -116 69 72 -70 0
-117 -114 -116 -69 -72 -70 0
119 116 -69 0
119 -116 69 0
-119 116 69 0
-119 -116 -69 0
118 72 -70 0
118 -72 70 0
-118 72 70 0
-118 -72 -70 0
120 -117 119 0
120 -117 68 0
-120 117 119 0
-120 117 68 0
120 -117 67 -70 0
120 -117 -67 70 0
-120 117 67 -70 0
-120 117 -67 70 0
120 117 -119 67 70 -68 0
120 117 -119 -67 -70 -68 0
-120 -117 -119 67 70 -68 0
-120 -117 -119 -67 -70 -68 0
122 119 -67 0
122 -119 67 0
-122 119 67 0
-122 -119 -67 0
121 70 -68 0
121 -70 68 0
-121 70 68 0
-121 -70 -68 0
123 -120 122 0
123 -120 66 0
-123 120 122 0
-123 120 66 0
123 -120 65 -68 0
123 -120 -65 68 0
-123 120 65 -68 0
-123 120 -65 68 0
123 120 -122 65 68 -66 0
123 120 -122 -65 -68 -66 0
-123 -120 -122 65 68 -66 0
-123 -120 -122 -65 -68 -66 0
125 122 -65 0
125 -122 65 0
-125 122 65 0
-125 -122 -65 0
124 68 -66 0
124 -68 66 0
-124 68 66 0
-124 -68 -66 0
126 -123 125 0
126 -123 64 0
-126 123 125 0
-126 123 64 0
126 -123 63 -66 0
126 -123 -63 66 0
-126 123 63 -66 0
-126 123 -63 66 0
126 123 -125 63 66 -64 0
126 123 -125 -63 -66 -64 0
-126 -123 -125 63 66 -64 0
-126 -123 -125 -63 -66 -64 0
128 125 -63 0
128 -125 63 0
-128 125 63 0
-128 -125 -63 0
127 66 -64 0
127 -66 64 0
-127 66 64 0
-127 -66 -64 0
129 -126 128 0
129 -126 62 0
-129 126 128 0
-129 126 62 0
129 -126 61 -64 0
129 -126 -61 64 0
-129 126 61 -64 0
-129 126 -61 64 0
129 126 -128 61 64 -62 0
129 126 -128 -61 -64 -62 0
-129 -126 -128 61 64 -62 0
-129 -126 -128 -61 -64 -62 0
131 128 -61 0
131 -128 61 0
-131 128 61 0
-131 -128 -61 0
130 64 -62 0
130 -64 62 0
-130 64 62 0
-130 -64 -62 0
132 -129 131 0
132 -129 60 0
-132 129 131 0
-132 129 60 0
132 -129 59 -62 0
132 -129 -59 62 0
-132 129 59 -62 0
-132 129 -59 62 0
132 129 -131 59 62 -60 0
132 129 -131 -59 -62 -60 0
-132 -129 -131 59 62 -60 0
-132 -129 -131 -59 -62 -60 0
134 131 -59 0
134 -131 59 0
-134 131 59 0
-134 -131 -59 0
133 62 -60 0
133 -62 60 0
-133 62 60 0
-133 -62 -60 0
135 -132 134 0
135 -132 58 0
-135 132 134 0
-135 132 58 0
135 -132 57 -60 0
135 -132 -57 60 0
-135 132 57 -60 0
-135 132 -57 60 0
135 132 -134 57 60 -58 0
135 132 -134 -57 -60 -58 0
-135 -132 -134 57 60 -58 0
-135 -132 -134 -57 -60 -58 0
137 134 -57 0
137 -134 57 0
-137 134 57 0
-137 -134 -57 0
136 60 -58 0
136 -60 58 0
-136 60 58 0
-136 -60 -58 0
138 -135 137 0
138 -135 56 0
-138 135 137 0
-138 135 56 0
138 -135 55 -58 0
138 -135 -55 58 0
-138 135 55 -58 0
-138 135 -55 58 0
138 135 -137 55 58 -56 0
138 135 -137 -55 -58 -56 0
-138 -135 -137 55 58 -56 0
-138 -135 -137 -55 -58 -56 0
140 137 -55 0
140 -137 55 0
-140 137 55 0
-140 -137 -55 0
139 58 -56 0
139 -58 56 0
-139 58 56 0
-139 -58 -56 0
141 -138 140 0
141 -138 54 0
-141 138 140 0
-141 138 54 0
141 -138 53 -56 0
141 -138 -53 56 0
-141 138 53 -56 0
-141 138 -53 56 0
141 138 -140 53 56 -54 0
141 138 -140 -53 -56 -54 0
-141 -138 -140 53 56 -54 0
-141 -138 -140 -53 -56 -54 0
143 140 -53 0
143 -140 53 0
-143 140 53 0
-143 -140 -53 0
142 56 -54 0
142 -56 54 0
-142 56 54 0
-142 -56 -54 0
144 -141 143 0
144 -141 52 0
-144 141 143 0
-144 141 52 0
144 -141 51 -54 0
144 -141 -51 54 0
-144 141 51 -54 0
-144 141 -51 54 0
144 141 -143 51 54 -52 0
144 141 -143 -51 -54 -52 0
-144 -141 -143 51 54 -52 0
-144 -141 -143 -51 -54 -52 0
146 143 -51 0
146 -143 51 0
-146 143 51 0
-146 -143 -51 0
145 54 -52 0
145 -54 52 0
-145 54 52 0
-145 -54 -52 0
147 -144 146 0
147 -144 50 0
-147 144 146 0
-147 144 50 0
147 -144 49 -52 0
147 -144 -49 52 0
-147 144 49 -52 0
-147 144 -49 52 0
147 144 -146 49 52 -50 0
147 144 -146 -49 -52 -50 0
-147 -144 -146 49 52 -50 0
-147 -144 -146 -49 -52 -50 0
149 146 -49 0
149 -146 49 0
-149 146 49 0
-149 -146 -49 0
148 52 -50 0
148 -52 50 0
-148 52 50 0
-148 -52 -50 0
150 -147 149 0
150 -147 48 0
-150 147 149 0
-150 147 48 0
150 -147 47 -50 0
150 -147 -47 50 0
-150 147 47 -50 0
-150 147 -47 50 0
150 147 -149 47 50 -48 0
150 147 -149 -47 -50 -48 0
-150 -147 -149 47 50 -48 0
-150 -147 -149 -47 -50 -48 0
152 149 -47 0
152 -149 47 0
-152 149 47 0
-152 -149 -47 0
151 50 -48 0
151 -50 48 0
-151 50 48 0
-151 -50 -48 0
153 -150 152 0
153 -150 46 0
-153 150 152 0
-153 150 46 0
153 -150 45 -48 0
153 -150 -45 48 0
-153 150 45 -48 0
-153 150 -45 48 0
153 150 -152 45 48 -46 0
153 150 -152 -45 -48 -46 0
-153 -150 -152 45 48 -46 0
-153 -150 -152 -45 -48 -46 0
155 152 -45 0
155 -152 45 0
-155 152 45 0
-155 -152 -45 0
154 48 -46 0
154 -48 46 0
-154 48 46 0
-154 -48 -46 0
156 -153 155 0
156 -153 44 0
-156 153 155 0
-156 153 44 0
156 -153 43 -46 0
156 -153 -43 46 0
-156 153 43 -46 0
-156 153 -43 46 0
156 153 -155 43 46 -44 0
156 153 -155 -43 -46 -44 0
-156 -153 -155 43 46 -44 0
-156 -153 -155 -43 -46 -44 0
158 155 -43 0
158 -155 43 0
-158 155 43 0
-158 -155 -43 0
157 46 -44 0
157 -46 44 0
-157 46 44 0
-157 -46 -44 0
159 -156 158 0
159 -156 42 0
-159 156 158 0
-159 156 42 0
159 -156 41 -44 0
159 -156 -41 44 0
-159 156 41 -44 0
-159 156 -41 44 0
159 156 -158 41 44 -42 0
159 156 -158 -41 -44 -42 0
-159 -156 -158 41 44 -42 0
-159 -156 -158 -41 -44 -42 0
161 158 -41 0
161 -158 41 0
-161 158 41 0
-161 -158 -41 0
160 44 -42 0
160 -44 42 0
-160 44 42 0
-160 -44 -42 0
162 -159 161 0
162 -159 40 0
-162 159 161 0
-162 159 40 0
162 -159 39 -42 0
162 -159 -39 42 0
-162 159 39 -42 0
-162 159 -39 42 0
162 159 -161 39 42 -40 0
162 159 -161 -39 -42 -40 0
-162 -159 -161 39 42 -40 0
-162 -159 -161 -39 -42 -40 0
164 161 -39 0
164 -161 39 0
-164 161 39 0
-164 -161 -39 0
163 42 -40 0
163 -42 40 0
-163 42 40 0
-163 -42 -40 0
165 -162 164 0
165 -162 38 0
-165 162 164 0
-165 162 38 0
165 -162 37 -40 0
165 -162 -37 40 0
-165 162 37 -40 0
-165 162 -37 40 0
165 162 -164 37 40 -38 0
165 162 -164 -37 -40 -38 0
-165 -162 -164 37 40 -38 0
-165 -162 -164 -37 -40 -38 0
167 164 -37 0
167 -164 37 0
-167 164 37 0
-167 -164 -37 0
166 40 -38 0
166 -40 38 0
-166 40 38 0
-166 -40 -38 0
168 -165 167 0
168 -165 36 0
-168 165 167 0
-168 165 36 0
168 -165 35 -38 0
168 -165 -35 38 0
-168 165 35 -38 0
-168 165 -35 38 0
168 165 -167 35 38 -36 0
168 165 -167 -35 -38 -36 0
-168 -165 -167 35 38 -36 0
-168 -165 -167 -35 -38 -36 0
170 167 -35 0
170 -167 35 0
-170 167 35 0
-170 -167 -35 0
169 38 -36 0
169 -38 36 0
-169 38 36 0
-169 -38 -36 0
171 -168 170 0
171 -168 34 0
-171 168 170 0
-171 168 34 0
171 -168 33 -36 0
171 -168 -33 36 0
-171 168 33 -36 0
-171 168 -33 36 0
171 168 -170 33 36 -34 0
171 168 -170 -33 -36 -34 0
-171 -168 -170 33 36 -34 0
-171 -168 -170 -33 -36 -34 0
173 170 -33 0
173 -170 33 0
-173 170 33 0
-173 -170 -33 0
172 36 -34 0
172 -36 34 0
-172 36 34 0
-172 -36 -34 0
174 -171 173 0
174 -171 32 0
-174 171 173 0
-174 171 32 0
174 -171 31 -34 0
174 -171 -31 34 0
-174 171 31 -34 0
-174 171 -31 34 0
174 171 -173 31 34 -32 0
174 171 -173 -31 -34 -32 0
-174 -171 -173 31 34 -32 0
-174 -171 -173 -31 -34 -32 0
176 173 -31 0
176 -173 31 0
-176 173 31 0
-176 -173 -31 0
175 34 -32 0
175 -34 32 0
-175 34 32 0
-175 -34 -32 0
177 -174 176 0
177 -174 30 0
-177 174 176 0
-177 174 30 0
177 -174 29 -32 0
177 -174 -29 32 0
-177 174 29 -32 0
-177 174 -29 32 0
177 174 -176 29 32 -30 0
177 174 -176 -29 -32 -30 0
-177 -174 -176 29 32 -30 0
-177 -174 -176 -29 -32 -30 0
179 176 -29 0
179 -176 29 0
-179 176 29 0
-179 -176 -29 0
178 32 -30 0
178 -32 30 0
-178 32 30 0
-178 -32 -30 0
180 -177 179 0
180 -177 28 0
-180 177 179 0
-180 177 28 0
180 -177 27 -30 0
180 -177 -27 30 0
-180 177 27 -30 0
-180 177 -27 30 0
180 177 -179 27 30 -28 0
180 177 -179 -27 -30 -28 0
-180 -177 -179 27 30 -28 0
-180 -177 -179 -27 -30 -28 0
182 179 -27 0
182 -179 27 0
-182 179 27 0
-182 -179 -27 0
181 30 -28 0
181 -30 28 0
-181 30 28 0
-181 -30 -28 0
183 -180 182 0
183 -180 26 0
-183 180 182 0
-183 180 26 0
183 -180 25 -28 0
183 -180 -25 28 0
-183 180 25 -28 0
-183 180 -25 28 0
183 180 -182 25 28 -26 0
183 180 -182 -25 -28 -26 0
-183 -180 -182 25 28 -26 0
-183 -180 -182 -25 -28 -26 0
185 182 -25 0
185 -182 25 0
-185 182 25 0
-185 -182 -25 0
184 28 -26 0
184 -28 26 0
-184 28 26 0
-184 -28 -26 0
186 -183 185 0
186 -183 24 0
-186 183 185 0
-186 183 24 0
186 -183 23 -26 0
186 -183 -23 26 0
-186 183 23 -26 0
-186 183 -23 26 0
186 183 -185 23 26 -24 0
186 183 -185 -23 -26 -24 0
-186 -183 -185 23 26 -24 0
-186 -183 -185 -23 -26 -24 0
188 185 -23 0
188 -185 23 0
-188 185 23 0
-188 -185 -23 0
187 26 -24 0
187 -26 24 0
-187 26 24 0
-187 -26 -24 0
189 -186 188 0
189 -186 22 0
-189 186 188 0
-189 186 22 0
189 -186 21 -24 0
189 -186 -21 24 0
-189 186 21 -24 0
-189 186 -21 24 0
189 186 -188 21 24 -22 0
189 186 -188 -21 -24 -22 0
-189 -186 -188 21 24 -22 0
-189 -186 -188 -21 -24 -22 0
191 188 -21 0
191 -188 21 0
-191 188 21 0
-191 -188 -21 0
190 24 -22 0
190 -24 22 0
-190 24 22 0
-190 -24 -22 0
192 -189 191 0
192 -189 20 0
-192 189 191 0
-192 189 20 0
192 -189 19 -22 0
192 -189 -19 22 0
-192 189 19 -22 0
-192 189 -19 22 0
192 189 -191 19 22 -20 0
192 189 -191 -19 -22 -20 0
-192 -189 -191 19 22 -20 0
-192 -189 -191 -19 -22 -20 0
194 191 -19 0
194 -191 19 0
-194 191 19 0
-194 -191 -19 0
193 22 -20 0
193 -22 20 0
-193 22 20 0
-193 -22 -20 0
195 -192 194 0
195 -192 18 0
-195 192 194 0
-195 192 18 0
195 -192 17 -20 0
195 -192 -17 20 0
-195 192 17 -20 0
-195 192 -17 20 0
195 192 -194 17 20 -18 0
195 192 -194 -17 -20 -18 0
-195 -192 -194 17 20 -18 0
-195 -192 -194 -17 -20 -18 0
197 194 -17 0
197 -194 17 0
-197 194 17 0
-197 -194 -17 0
196 20 -18 0
196 -20 18 0
-196 20 18 0
-196 -20 -18 0
198 -195 197 0
198 -195 16 0
-198 195 197 0
-198 195 16 0
198 -195 15 -18 0
198 -195 -15 18 0
-198 195 15 -18 0
-198 195 -15 18 0
198 195 -197 15 18 -16 0
198 195 -197 -15 -18 -16 0
-198 -195 -197 15 18 -16 0
-198 -195 -197 -15 -18 -16 0
200 197 -15 0
200 -197 15 0
-200 197 15 0
-200 -197 -15 0
199 18 -16 0
199 -18 16 0
-199 18 16 0
-199 -18 -16 0
201 -198 200 0
201 -198 14 0
-201 198 200 0
-201 198 14 0
201 -198 13 -16 0
201 -198 -13 16 0
-201 198 13 -16 0
-201 198 -13 16 0
201 198 -200 13 16 -14 0
201 198 -200 -13 -16 -14 0
-201 -198 -200 13 16 -14 0
-201 -198 -200 -13 -16 -14 0
203 200 -13 0
203 -200 13 0
-203 200 13 0
-203 -200 -13 0
202 16 -14 0
202 -16 14 0
-202 16 14 0
-202 -16 -14 0
204 -201 203 0
204 -201 12 0
-204 201 203 0
-204 201 12 0
204 -201 11 -14 0
204 -201 -11 14 0
-204 201 11 -14 0
-204 201 -11 14 0
204 201 -203 11 14 -12 0
204 201 -203 -11 -14 -12 0
-204 -201 -203 11 14 -12 0
-204 -201 -203 -11 -14 -12 0
206 203 -11 0
206 -203 11 0
-206 203 11 0
-206 -203 -11 0
205 14 -12 0
205 -14 12 0
-205 14 12 0
-205 -14 -12 0
207 -204 206 0
207 -204 10 0
-207 204 206 0
-207 204 10 0
207 -204 9 -12 0
207 -204 -9 12 0
-207 204 9 -12 0
-207 204 -9 12 0
207 204 -206 9 12 -10 0
207 204 -206 -9 -12 -10 0
-207 -204 -206 9 12 -10 0
-207 -204 -206 -9 -12 -10 0
209 206 -9 0
209 -206 9 0
-209 206 9 0
-209 -206 -9 0
208 12 -10 0
208 -12 10 0
-208 12 10 0
-208 -12 -10 0
210 -207 209 0
210 -207 8 0
-210 207 209 0
-210 207 8 0
210 -207 7 -10 0
210 -207 -7 10 0
-210 207 7 -10 0
-210 207 -7 10 0
210 207 -209 7 10 -8 0
210 207 -209 -7 -10 -8 0
-210 -207 -209 7 10 -8 0
-210 -207 -209 -7 -10 -8 0
212 209 -7 0
212 -209 7 0
-212 209 7 0
-212 -209 -7 0
211 10 -8 0
211 -10 8 0
-211 10 8 0
-211 -10 -8 0
213 -210 212 0
213 -210 6 0
-213 210 212 0
-213 210 6 0
213 -210 5 -8 0
213 -210 -5 8 0
-213 210 5 -8 0
-213 210 -5 8 0
213 210 -212 5 8 -6 0
213 210 -212 -5 -8 -6 0
-213 -210 -212 5 8 -6 0
-213 -210 -212 -5 -8 -6 0
215 212 -5 0
215 -212 5 0
-215 212 5 0
-215 -212 -5 0
214 8 -6 0
214 -8 6 0
-214 8 6 0
-214 -8 -6 0
216 -213 215 0
216 -213 4 0
-216 213 215 0
-216 213 4 0
216 -213 3 -6 0
216 -213 -3 6 0
-216 213 3 -6 0
-216 213 -3 6 0
216 213 -215 3 6 -4 0
216 213 -215 -3 -6 -4 0
-216 -213 -215 3 6 -4 0
-216 -213 -215 -3 -6 -4 0
218 215 -3 0
218 -215 3 0
-218 215 3 0
-218 -215 -3 0
217 6 -4 0
217 -6 4 0
-217 6 4 0
-217 -6 -4 0
219 -216 218 0
219 -216 2 0
-219 216 218 0
-219 216 2 0
219 -216 1 -4 0
219 -216 -1 4 0
-219 216 1 -4 0
-219 216 -1 4 0
219 216 -218 1 4 -2 0
219 216 -218 -1 -4 -2 0
-219 -216 -218 1 4 -2 0
-219 -216 -218 -1 -4 -2 0
221 218 -1 0
221 -218 1 0
-221 218 1 0
-221 -218 -1 0
220 4 -2 0
220 -4 2 0
-220 4 2 0
-220 -4 -2 0
-221 0
-218 0
-220 0
-215 0
-217 0
-212 0
-214 0
-209 0
-211 0
-206 0
-208 0
-203 0
-205 0
-200 0
-202 0
-197 0
-199 0
-194 0
-196 0
-191 0
-193 0
-188 0
-190 0
-185 0
-187 0
-182 0
-184 0
-179 0
-181 0
-176 0
-178 0
-173 0
-175 0
-170 0
-172 0
-167 0
-169 0
-164 0
-166 0
-161 0
-163 0
-158 0
-160 0
-155 0
-157 0
-152 0
-154 0
-149 0
-151 0
-146 0
-148 0
-143 0
-145 0
-140 0
-142 0
-137 0
-139 0
-134 0
-136 0
-131 0
-133 0
-128 0
-130 0
-125 0
-127 0
-122 0
-124 0
-119 0
-121 0
-116 0
-118 0
-113 0
-115 0
-110 0
-112 0
-107 0
-109 0
-104 0
-106 0
-101 0
-103 0
-98 0
-100 0
-91 0
-97 0
